
% --------------------------------------------- tsp225 ---------------------------------------------

% Name: tsp225 ==> A TSP problem (Reinelt)
tsp225(1,:) = ... % X-Coordinates
    [155.42, 375.92, 183.92, 205.42, 205.42, 226.42, 226.42, 226.42, 226.42, 226.42, 226.42, ...
     226.42, 226.42, 205.42, 190.92, 190.92, 176.92, 176.92, 155.42, 155.42, 155.42, 183.92, ...
     219.42, 240.92, 269.42, 290.42, 387.42, 318.92, 318.92, 318.92, 318.92, 297.92, 290.42, ...
     290.42, 297.92, 254.92, 254.92, 254.92, 254.92, 254.92, 254.92, 254.92, 254.92, 276.42, ...
     296.42, 276.42, 375.92, 308.92, 354.92, 338.42, 354.92, 338.42, 338.42, 354.92, 354.92, ...
     361.92, 361.92, 383.42, 383.42, 404.42, 404.42, 418.92, 418.92, 432.92, 432.92, 418.92, ...
     418.92, 397.42, 397.42, 375.92, 375.92, 368.92, 368.92, 347.42, 347.42, 336.42, 336.42, ...
     347.42, 347.42, 368.92, 368.92, 418.92, 418.92, 432.92, 432.92, 447.42, 447.42, 447.42, ...
     432.92, 432.92, 418.92, 418.92, 397.42, 397.42, 375.92, 375.92, 361.92, 361.92, 375.92, ...
     375.92, 397.42, 397.42, 418.92, 418.92, 439.92, 439.92, 454.42, 454.42, 461.42, 461.42, ...
     461.42, 447.42, 447.42, 439.92, 439.92, 419.92, 419.92, 439.92, 454.42, 475.92, 475.92, ...
     496.92, 496.92, 496.92, 496.92, 496.92, 496.92, 496.92, 496.92, 470.42, 470.42, 496.92, ...
     347.42, 539.92, 560.92, 589.42, 589.42, 603.92, 610.92, 610.92, 610.92, 624.92, 624.92, ...
     610.92, 610.92, 589.42, 589.42, 575.42, 560.92, 542.92, 542.92, 560.92, 575.42, 575.42, ...
     582.42, 582.42, 596.42, 560.92, 596.42, 582.42, 582.42, 575.42, 575.42, 525.42, 525.42, ...
     525.42, 525.42, 525.42, 525.42, 525.42, 525.42, 546.92, 546.92, 568.42, 475.92, 603.92, ...
     624.92, 624.92, 596.42, 575.42, 553.92, 532.42, 575.42, 489.92, 468.42, 447.42, 425.92, ...
     404.42, 370.42, 361.92, 340.42, 326.42, 301.92, 276.42, 254.92, 315.92, 212.42, 190.92, ...
     338.92, 155.42, 624.92, 318.92, 155.42, 311.92, 355.42, 318.92, 362.92, 254.92, 383.42, ...
     447.42, 470.42, 525.42, 546.92, 525.42, 525.42, 336.42, 336.42, 293.42, 336.42, 425.92, ...
     391.42, 482.92, 429.92, 330.92, 368.42];
tsp225(2,:) = ... % Y-Coordinates
    [150.65, 164.65, 150.65, 150.65, 171.65, 171.65, 186.15, 207.15, 235.65, 264.15, 292.65, ...
     314.15, 335.65, 335.65, 335.65, 328.15, 328.15, 299.65, 299.65, 328.15, 356.65, 356.65, ...
     356.65, 356.65, 356.65, 356.65, 136.15, 356.65, 335.65, 328.15, 299.65, 299.65, 328.15, ...
     335.65, 328.15, 335.65, 314.15, 292.65, 271.65, 243.15, 221.65, 193.15, 171.65, 171.65, ...
     150.65, 150.65, 150.65, 150.65, 164.65, 174.65, 174.65, 200.15, 221.65, 221.65, 200.15, ...
     200.15, 186.15, 186.15, 179.15, 179.15, 186.15, 186.15, 200.15, 200.15, 221.65, 221.65, ...
     235.65, 235.65, 243.15, 243.15, 257.15, 257.15, 264.15, 264.15, 278.65, 278.65, 328.15, ...
     328.15, 342.65, 342.65, 353.65, 353.65, 342.65, 342.65, 356.65, 356.65, 321.15, 292.65, ...
     292.65, 314.15, 314.15, 321.15, 321.15, 333.65, 333.65, 321.15, 321.15, 299.65, 299.65, ...
     285.65, 285.65, 271.65, 271.65, 264.15, 264.15, 250.15, 250.15, 243.15, 243.15, 214.65, ...
     193.15, 193.15, 179.15, 179.15, 167.65, 167.65, 150.65, 150.65, 150.65, 150.65, 171.65, ...
     171.65, 193.15, 214.65, 243.15, 271.65, 292.65, 317.15, 335.65, 335.65, 356.65, 356.65, ...
     150.65, 356.65, 356.65, 356.65, 342.65, 342.65, 342.65, 335.65, 321.15, 321.15, 278.65, ...
     278.65, 257.15, 257.15, 250.15, 250.15, 250.15, 250.15, 264.15, 264.15, 264.15, 271.65, ...
     271.65, 285.65, 285.65, 335.65, 314.15, 314.15, 321.15, 321.15, 335.65, 335.65, 314.15, ...
     299.65, 281.65, 233.15, 214.65, 193.15, 171.65, 171.65, 150.65, 150.65, 160.65, 150.65, ...
     150.65, 136.15, 136.15, 136.15, 136.15, 136.15, 356.65, 136.15, 136.15, 136.15, 136.15, ...
     136.15, 136.15, 150.65, 136.15, 136.15, 136.15, 136.15, 136.15, 136.15, 136.15, 136.15, ...
     150.65, 136.15, 299.65, 321.65, 314.15, 356.65, 136.15, 314.15, 164.65, 356.65, 333.65, ...
     335.65, 345.65, 250.15, 335.65, 261.15, 356.65, 298.65, 313.15, 136.15, 306.15, 264.15, ...
     353.65, 335.65, 167.65, 150.65, 150.65];
tsp225_opt_tour = ... % Known optimum tour
    [1  , 200, 198, 197, 195, 194, 218, 193, 196, 192, 191, 205, 189, 27 , 188, 187, 186, 185, ...
     184, 182, 181, 180, 179, 178, 177, 176, 174, 173, 172, 171, 170, 169, 168, 212, 214, 167, ...
     166, 165, 164, 213, 158, 163, 162, 161, 160, 159, 157, 156, 155, 154, 153, 152, 151, 150, ...
     149, 148, 147, 146, 145, 144, 143, 201, 142, 141, 140, 139, 138, 137, 136, 183, 135, 134, ...
     215, 132, 131, 211, 130, 222, 129, 128, 127, 126, 125, 124, 123, 122, 121, 175, 120, 119, ...
     118, 117, 116, 223, 115, 114, 113, 112, 111, 110, 109, 108, 107, 106, 105, 220, 104, 103, ...
     102, 101, 100, 99 , 98 , 97 , 96 , 95 , 209, 94 , 93 , 92 , 91 , 90 , 89 , 88 , 87 , 210, ...
     86 , 85 , 84 , 83 , 82 , 221, 81 , 80 , 79 , 78 , 77 , 217, 219, 216, 76 , 75 , 74 , 73 , ...
     72 , 71 , 70 , 69 , 68 , 67 , 66 , 65 , 64 , 63 , 62 , 61 , 60 , 59 , 58 , 57 , 56 , 55 , ...
     54 , 53 , 52 , 50 , 51 , 49 , 207, 2  , 47 , 225, 190, 133, 199, 224, 48 , 45 , 46 , 44 , ...
     43 , 42 , 41 , 40 , 39 , 38 , 37 , 36 , 34 , 33 , 35 , 32 , 31 , 206, 202, 30 , 29 , 28 , ...
     204, 26 , 25 , 208, 24 , 23 , 22 , 21 , 20 , 203, 19 , 18 , 17 , 16 , 15 , 14 , 13 , 12 , ...
     11 , 10 , 9  , 8  , 7  , 6  , 5  , 4  , 3];
tsp225_opt_tour_length = 3916; % Known optimum tour length
tsp225_opt_tour_length_calculated = 3859; % Calculated optimum tour length
